32      4       
11      15      13      17      
0       0       0       0       0       1       2       
9       1       0       0       9       1       3       
4       3       0       0       17      2       4       8       
5       1       0       5       0       1       5       
6       0       0       13      5       2       6       7       
4       0       1       13      0       2       9       12      
5       0       3       11      0       1       10      
10      10      0       0       17      1       9       
4       11      0       9       0       2       11      13      
3       0       12      1       0       2       11      13      
4       0       1       0       8       3       14      15      17      
7       4       0       6       0       3       14      15      17      
5       0       15      5       0       1       14      
2       0       12      0       8       3       16      18      24      
5       1       10      0       0       2       16      24      
3       3       4       0       0       3       19      20      22      
10      1       0       0       13      3       19      20      23      
5       7       0       0       7       3       20      22      23      
10      9       0       0       2       1       21      
5       0       10      0       4       1       25      
8       0       0       7       9       1       25      
5       0       12      4       0       1       25      
5       11      12      0       0       1       25      
3       4       1       0       0       1       25      
1       6       0       1       0       2       26      27      
1       0       0       4       5       2       28      29      
4       11      4       0       0       1       28      
2       0       0       7       2       2       30      31      
9       0       11      0       10      1       30      
6       0       0       6       12      1       32      
8       0       5       6       0       1       32      
0       0       0       0       0       0       
